g3 0 1 0	# problem 3385
 155 137 1 0 131	# vars, constraints, objectives, ranges, eqns
 60 0	# nonlinear constraints, objectives
 0 0	# network constraints: nonlinear, linear
 40 0 0	# nonlinear vars in constraints, objectives, both
 0 0 0 1	# linear network variables; functions; arith, flags
 0 0 0 0 0	# discrete variables: binary, integer, nonlinear (b,c,o)
 559 5	# nonzeros in Jacobian, gradients
 0 0	# max name lengths: constraints, variables
 0 0 0 0 0	# common exprs: b,c,o,c1,o1
b
0 0 1e+06
0 0 1e+06
0 0 1e+06
0 0 1e+06
0 0 1e+06
0 0 1e+06
0 0 1e+06
0 0 1e+06
0 0 1e+06
0 0 1e+06
0 0 1e+06
0 0 1e+06
0 0 1e+06
0 0 1e+06
0 0 1e+06
0 0 1e+06
0 0 1e+06
0 0 1e+06
0 0 1e+06
0 0 1e+06
0 0 1e+06
0 0 1e+06
0 0 1e+06
0 0 1e+06
0 0 1e+06
0 0 1e+06
0 0 1e+06
0 0 1e+06
0 0 1e+06
0 0 1e+06
0 0 1e+06
0 0 1e+06
0 0 1e+06
0 0 1e+06
0 0 1e+06
0 0 1e+06
0 0 1e+06
0 0 1e+06
0 0 1e+06
0 0 1e+06
0 0 1e+06
0 0 1e+06
0 0 1e+06
0 0 1e+06
0 0 1e+06
0 0 1e+06
0 0 1e+06
0 0 1e+06
0 0 1e+06
0 0 1e+06
0 0 1e+06
0 0 1e+06
0 0 1e+06
0 0 1e+06
0 0 1e+06
0 0 1e+06
0 0 1e+06
0 0 1e+06
0 0 1e+06
0 0 1e+06
0 0 1e+06
0 0 1e+06
0 0 1e+06
0 0 1e+06
0 0 1e+06
0 0 1e+06
0 0 1e+06
0 0 1e+06
0 0 1e+06
0 0 1e+06
0 0 1e+06
0 0 1e+06
0 0 1e+06
0 0 1e+06
0 0 1e+06
0 0 1e+06
0 0 1e+06
0 0 1e+06
0 0 1e+06
0 0 1e+06
0 0 1e+06
0 0 1e+06
0 0 1e+06
0 0 1e+06
0 0 1e+06
0 0 1e+06
0 0 1e+06
0 0 1e+06
0 0 1e+06
0 0 1e+06
0 0 1e+06
0 0 1e+06
0 0 1e+06
0 0 1e+06
0 0 1e+06
0 0 1e+06
0 0 1e+06
0 0 1e+06
0 0 1e+06
0 0 1e+06
0 0 1e+06
0 0 1e+06
0 0 1e+06
0 0 1e+06
0 0 1e+06
0 0 1e+06
0 0 1e+06
0 0 1e+06
0 0 1e+06
0 0 1e+06
0 0 1e+06
0 0 1e+06
0 0 1e+06
0 0 1e+06
0 0 1e+06
0 0 1e+06
0 0 1e+06
0 0 1e+06
0 0 1e+06
0 0 1e+06
0 0 1e+06
0 0 1e+06
0 0 1e+06
0 0 1e+06
0 0 1e+06
0 0 1e+06
0 0 1e+06
0 0 1e+06
0 0 1e+06
0 0 1e+06
0 0 1e+06
0 0 1e+06
0 0 1e+06
0 0 1e+06
0 0 1e+06
0 0 1e+06
0 0 1e+06
0 0 1e+06
0 0 1e+06
0 0 1e+06
0 0 1e+06
0 0 1e+06
0 0 1e+06
0 0 1e+06
0 0 1e+06
0 0 1e+06
0 0 1e+06
0 0 1e+06
0 0 1e+06
0 0 1e+06
0 0 1e+06
0 0 1e+06
0 0 1e+06
0 0 1e+06
0 0 1e+06
r
4 0
4 0
4 0
4 0
4 0
4 0
4 0
4 0
4 0
4 0
4 0
4 0
4 0
4 0
4 0
4 0
4 0
4 0
4 0
4 0
4 0
4 0
4 0
4 0
4 0
4 0
4 0
4 0
4 0
4 0
4 0
4 0
4 0
4 0
4 0
4 0
4 0
4 0
4 0
4 0
4 0
4 0
4 0
4 0
4 0
4 0
4 0
4 0
4 0
4 0
4 0
4 0
4 0
4 0
4 0
4 0
4 0
4 0
4 0
4 0
4 -80
4 -60
4 -130
4 0
4 0
4 0
4 0
4 0
4 0
4 0
4 0
4 0
4 0
4 0
4 -960
4 -3000
4 -65000
4 0
4 0
4 0
4 0
4 0
4 0
4 0
4 0
4 0
4 0
4 0
4 0
4 0
4 0
4 0
4 0
4 0
4 0
4 0
4 0
4 0
4 0
4 0
4 0
4 0
4 0
4 0
4 0
4 0
4 0
4 0
4 0
4 0
4 0
4 0
4 0
4 1
4 1
4 1
1 0
1 0
1 0
1 0
1 0
4 0
4 0
4 0
4 0
4 0
4 0
4 0
4 0
4 0
4 0
4 1
4 1
4 1
4 1
4 1
1 0
C0
o2
v10
v5
C1
o2
v11
v5
C2
o2
v12
v5
C3
o2
v13
v5
C4
o2
v14
v5
C5
o2
v16
v6
C6
o2
v17
v6
C7
o2
v18
v6
C8
o2
v19
v6
C9
o2
v20
v6
C10
o2
v22
v7
C11
o2
v23
v7
C12
o2
v24
v7
C13
o2
v25
v7
C14
o2
v26
v7
C15
o2
v28
v8
C16
o2
v29
v8
C17
o2
v30
v8
C18
o2
v31
v8
C19
o2
v32
v8
C20
o2
v34
v9
C21
o2
v35
v9
C22
o2
v36
v9
C23
o2
v37
v9
C24
o2
v38
v9
C25
o2
v15
v5
C26
o2
v21
v6
C27
o2
v27
v7
C28
o2
v33
v8
C29
o2
v39
v9
C30
o2
v10
v0
C31
o2
v11
v0
C32
o2
v12
v0
C33
o2
v13
v0
C34
o2
v14
v0
C35
o2
v16
v1
C36
o2
v17
v1
C37
o2
v18
v1
C38
o2
v19
v1
C39
o2
v20
v1
C40
o2
v22
v2
C41
o2
v23
v2
C42
o2
v24
v2
C43
o2
v25
v2
C44
o2
v26
v2
C45
o2
v28
v3
C46
o2
v29
v3
C47
o2
v30
v3
C48
o2
v31
v3
C49
o2
v32
v3
C50
o2
v34
v4
C51
o2
v35
v4
C52
o2
v36
v4
C53
o2
v37
v4
C54
o2
v38
v4
C55
o2
v15
v0
C56
o2
v21
v1
C57
o2
v27
v2
C58
o2
v33
v3
C59
o2
v39
v4
C60
n0
C61
n0
C62
n0
C63
n0
C64
n0
C65
n0
C66
n0
C67
n0
C68
n0
C69
n0
C70
n0
C71
n0
C72
n0
C73
n0
C74
n0
C75
n0
C76
n0
C77
n0
C78
n0
C79
n0
C80
n0
C81
n0
C82
n0
C83
n0
C84
n0
C85
n0
C86
n0
C87
n0
C88
n0
C89
n0
C90
n0
C91
n0
C92
n0
C93
n0
C94
n0
C95
n0
C96
n0
C97
n0
C98
n0
C99
n0
C100
n0
C101
n0
C102
n0
C103
n0
C104
n0
C105
n0
C106
n0
C107
n0
C108
n0
C109
n0
C110
n0
C111
n0
C112
n0
C113
n0
C114
n0
C115
n0
C116
n0
C117
n0
C118
n0
C119
n0
C120
n0
C121
n0
C122
n0
C123
n0
C124
n0
C125
n0
C126
n0
C127
n0
C128
n0
C129
n0
C130
n0
C131
n0
C132
n0
C133
n0
C134
n0
C135
n0
C136
n0
O0 0
n0
k154
9
18
27
36
45
53
61
69
77
85
88
91
94
97
100
103
106
109
112
115
118
121
124
127
130
133
136
139
142
145
148
151
154
157
160
163
166
169
172
175
178
181
184
187
190
193
196
199
202
205
208
211
214
217
220
223
226
229
232
235
238
241
244
247
250
253
256
259
262
265
268
271
274
277
280
283
286
289
292
295
298
301
304
307
310
313
316
319
321
324
328
332
336
340
344
347
351
355
359
363
367
370
374
378
382
386
390
393
396
399
402
405
408
411
414
417
420
423
426
429
432
435
438
441
444
448
452
456
460
464
468
472
476
480
484
488
492
496
500
504
508
512
516
520
524
528
532
536
540
544
547
550
553
556
J0 3
5 0
10 0
125 -1
J1 3
5 0
11 0
130 -1
J2 3
5 0
12 0
135 -1
J3 3
5 0
13 0
140 -1
J4 3
5 0
14 0
145 -1
J5 3
6 0
16 0
126 -1
J6 3
6 0
17 0
131 -1
J7 3
6 0
18 0
136 -1
J8 3
6 0
19 0
141 -1
J9 3
6 0
20 0
146 -1
J10 3
7 0
22 0
127 -1
J11 3
7 0
23 0
132 -1
J12 3
7 0
24 0
137 -1
J13 3
7 0
25 0
142 -1
J14 3
7 0
26 0
147 -1
J15 3
8 0
28 0
128 -1
J16 3
8 0
29 0
133 -1
J17 3
8 0
30 0
138 -1
J18 3
8 0
31 0
143 -1
J19 3
8 0
32 0
148 -1
J20 3
9 0
34 0
129 -1
J21 3
9 0
35 0
134 -1
J22 3
9 0
36 0
139 -1
J23 3
9 0
37 0
144 -1
J24 3
9 0
38 0
149 -1
J25 3
5 0
15 0
150 -1
J26 3
6 0
21 0
151 -1
J27 3
7 0
27 0
152 -1
J28 3
8 0
33 0
153 -1
J29 3
9 0
39 0
154 -1
J30 3
0 0
10 0
58 -1
J31 3
0 0
11 0
63 -1
J32 3
0 0
12 0
68 -1
J33 3
0 0
13 0
73 -1
J34 3
0 0
14 0
78 -1
J35 3
1 0
16 0
59 -1
J36 3
1 0
17 0
64 -1
J37 3
1 0
18 0
69 -1
J38 3
1 0
19 0
74 -1
J39 3
1 0
20 0
79 -1
J40 3
2 0
22 0
60 -1
J41 3
2 0
23 0
65 -1
J42 3
2 0
24 0
70 -1
J43 3
2 0
25 0
75 -1
J44 3
2 0
26 0
80 -1
J45 3
3 0
28 0
61 -1
J46 3
3 0
29 0
66 -1
J47 3
3 0
30 0
71 -1
J48 3
3 0
31 0
76 -1
J49 3
3 0
32 0
81 -1
J50 3
4 0
34 0
62 -1
J51 3
4 0
35 0
67 -1
J52 3
4 0
36 0
72 -1
J53 3
4 0
37 0
77 -1
J54 3
4 0
38 0
82 -1
J55 3
0 0
15 0
83 -1
J56 3
1 0
21 0
84 -1
J57 3
2 0
27 0
85 -1
J58 3
3 0
33 0
86 -1
J59 3
4 0
39 0
87 -1
J60 6
40 -1
41 -1
42 -1
43 -1
44 -1
45 -1
J61 6
46 -1
47 -1
48 -1
49 -1
50 -1
51 -1
J62 6
52 -1
53 -1
54 -1
55 -1
56 -1
57 -1
J63 9
0 1
41 -1
47 -1
53 -1
58 -1
59 -1
60 -1
61 -1
62 -1
J64 9
1 1
42 -1
48 -1
54 -1
63 -1
64 -1
65 -1
66 -1
67 -1
J65 9
2 1
43 -1
49 -1
55 -1
68 -1
69 -1
70 -1
71 -1
72 -1
J66 9
3 1
44 -1
50 -1
56 -1
73 -1
74 -1
75 -1
76 -1
77 -1
J67 9
4 1
45 -1
51 -1
57 -1
78 -1
79 -1
80 -1
81 -1
82 -1
J68 7
0 1
58 -1
63 -1
68 -1
73 -1
78 -1
83 -1
J69 7
1 1
59 -1
64 -1
69 -1
74 -1
79 -1
84 -1
J70 7
2 1
60 -1
65 -1
70 -1
75 -1
80 -1
85 -1
J71 7
3 1
61 -1
66 -1
71 -1
76 -1
81 -1
86 -1
J72 7
4 1
62 -1
67 -1
72 -1
77 -1
82 -1
87 -1
J73 9
40 -1
46 -1
52 -1
83 -1
84 -1
85 -1
86 -1
87 -1
88 1
J74 6
89 -1
90 -1
91 -1
92 -1
93 -1
94 -1
J75 6
95 -1
96 -1
97 -1
98 -1
99 -1
100 -1
J76 6
101 -1
102 -1
103 -1
104 -1
105 -1
106 -1
J77 2
90 -1
107 960
J78 2
91 -1
108 960
J79 2
92 -1
109 960
J80 2
93 -1
110 960
J81 2
94 -1
111 960
J82 2
96 -1
112 3000
J83 2
97 -1
113 3000
J84 2
98 -1
114 3000
J85 2
99 -1
115 3000
J86 2
100 -1
116 3000
J87 2
102 -1
117 65000
J88 2
103 -1
118 65000
J89 2
104 -1
119 65000
J90 2
105 -1
120 65000
J91 2
106 -1
121 65000
J92 2
89 -1
122 960
J93 2
95 -1
123 3000
J94 2
101 -1
124 65000
J95 2
41 -1
107 80
J96 2
42 -1
108 80
J97 2
43 -1
109 80
J98 2
44 -1
110 80
J99 2
45 -1
111 80
J100 2
47 -1
112 60
J101 2
48 -1
113 60
J102 2
49 -1
114 60
J103 2
50 -1
115 60
J104 2
51 -1
116 60
J105 2
53 -1
117 130
J106 2
54 -1
118 130
J107 2
55 -1
119 130
J108 2
56 -1
120 130
J109 2
57 -1
121 130
J110 2
40 -1
122 80
J111 2
46 -1
123 60
J112 2
52 -1
124 130
J113 6
107 1
108 1
109 1
110 1
111 1
122 1
J114 6
112 1
113 1
114 1
115 1
116 1
123 1
J115 6
117 1
118 1
119 1
120 1
121 1
124 1
J116 9
0 -400
90 1
96 1
102 1
125 1
126 1
127 1
128 1
129 1
J117 9
1 -100
91 1
97 1
103 1
130 1
131 1
132 1
133 1
134 1
J118 9
2 -50
92 1
98 1
104 1
135 1
136 1
137 1
138 1
139 1
J119 9
3 -570
93 1
99 1
105 1
140 1
141 1
142 1
143 1
144 1
J120 9
4 -100
94 1
100 1
106 1
145 1
146 1
147 1
148 1
149 1
J121 9
5 -1
90 0.9
96 0.9
102 0.9
125 0.9
126 0.9
127 0.9
128 0.9
129 0.9
J122 9
6 -1
91 0.6
97 0.6
103 0.6
130 0.6
131 0.6
132 0.6
133 0.6
134 0.6
J123 9
7 -1
92 0.15
98 0.15
104 0.15
135 0.15
136 0.15
137 0.15
138 0.15
139 0.15
J124 9
8 -1
93 0.26
99 0.26
105 0.26
140 0.26
141 0.26
142 0.26
143 0.26
144 0.26
J125 9
9 -1
94 0.1
100 0.1
106 0.1
145 0.1
146 0.1
147 0.1
148 0.1
149 0.1
J126 7
5 1
125 -1
130 -1
135 -1
140 -1
145 -1
150 -1
J127 7
6 1
126 -1
131 -1
136 -1
141 -1
146 -1
151 -1
J128 7
7 1
127 -1
132 -1
137 -1
142 -1
147 -1
152 -1
J129 7
8 1
128 -1
133 -1
138 -1
143 -1
148 -1
153 -1
J130 7
9 1
129 -1
134 -1
139 -1
144 -1
149 -1
154 -1
J131 6
10 1
11 1
12 1
13 1
14 1
15 1
J132 6
16 1
17 1
18 1
19 1
20 1
21 1
J133 6
22 1
23 1
24 1
25 1
26 1
27 1
J134 6
28 1
29 1
30 1
31 1
32 1
33 1
J135 6
34 1
35 1
36 1
37 1
38 1
39 1
J136 9
88 -2
89 1
95 1
101 1
150 1
151 1
152 1
153 1
154 1
G0 5
0 1
1 1
2 1
3 1
4 1
